data/medium_9.dzn
num_nodi = 8;
ufficio_postale = 6;
dim_borsa = 26;
max_step = 20;
elenco_lettere = [10, 3, 13, 8, 6, 0, 0, 0];
distanze = [|0, 23, 4, 15, 2, 11, 7, 18
|2, 0, 5, 5, 13, 5, 2, 9
|12, 4, 0, 22, 2, 13, 22, 24
|7, 20, 15, 0, 14, 25, 1, 23
|20, 19, 23, 13, 0, 20, 2, 4
|24, 24, 9, 13, 11, 0, 13, 2
|17, 8, 25, 2, 10, 14, 0, 14
|16, 18, 2, 9, 18, 9, 24, 0
|];
