data/medium_9.lp
node(1..8).

ufficio_postale(6).

dim_borsa(26).

time(1..20).

lettere(1,10).
lettere(2,3).
lettere(3,13).
lettere(4,8).
lettere(5,6).
lettere(6,0).
lettere(7,0).
lettere(8,0).

costo_arco(1, 1, 0).
costo_arco(1, 2, 23).
costo_arco(1, 3, 4).
costo_arco(1, 4, 15).
costo_arco(1, 5, 2).
costo_arco(1, 6, 11).
costo_arco(1, 7, 7).
costo_arco(1, 8, 18).

costo_arco(2, 1, 2).
costo_arco(2, 2, 0).
costo_arco(2, 3, 5).
costo_arco(2, 4, 5).
costo_arco(2, 5, 13).
costo_arco(2, 6, 5).
costo_arco(2, 7, 2).
costo_arco(2, 8, 9).

costo_arco(3, 1, 12).
costo_arco(3, 2, 4).
costo_arco(3, 3, 0).
costo_arco(3, 4, 22).
costo_arco(3, 5, 2).
costo_arco(3, 6, 13).
costo_arco(3, 7, 22).
costo_arco(3, 8, 24).

costo_arco(4, 1, 7).
costo_arco(4, 2, 20).
costo_arco(4, 3, 15).
costo_arco(4, 4, 0).
costo_arco(4, 5, 14).
costo_arco(4, 6, 25).
costo_arco(4, 7, 1).
costo_arco(4, 8, 23).

costo_arco(5, 1, 20).
costo_arco(5, 2, 19).
costo_arco(5, 3, 23).
costo_arco(5, 4, 13).
costo_arco(5, 5, 0).
costo_arco(5, 6, 20).
costo_arco(5, 7, 2).
costo_arco(5, 8, 4).

costo_arco(6, 1, 24).
costo_arco(6, 2, 24).
costo_arco(6, 3, 9).
costo_arco(6, 4, 13).
costo_arco(6, 5, 11).
costo_arco(6, 6, 0).
costo_arco(6, 7, 13).
costo_arco(6, 8, 2).

costo_arco(7, 1, 17).
costo_arco(7, 2, 8).
costo_arco(7, 3, 25).
costo_arco(7, 4, 2).
costo_arco(7, 5, 10).
costo_arco(7, 6, 14).
costo_arco(7, 7, 0).
costo_arco(7, 8, 14).

costo_arco(8, 1, 16).
costo_arco(8, 2, 18).
costo_arco(8, 3, 2).
costo_arco(8, 4, 9).
costo_arco(8, 5, 18).
costo_arco(8, 6, 9).
costo_arco(8, 7, 24).
costo_arco(8, 8, 0).

